objective value:                                  -77
t_x25                                               1 	(obj:-100)
t_y25_260                                           1 	(obj:1)
t_y25_178                                           1 	(obj:1)
t_y25_479                                           1 	(obj:1)
t_y25_147                                           1 	(obj:1)
t_y25_418                                           1 	(obj:1)
t_y25_252                                           1 	(obj:1)
t_y25_453                                           1 	(obj:1)
t_y25_189                                           1 	(obj:1)
t_y25_462                                           1 	(obj:1)
t_y25_97                                            1 	(obj:1)
t_y25_159                                           1 	(obj:1)
t_y25_326                                           1 	(obj:1)
t_y9_25                                             1 	(obj:1)
t_y25_430                                           1 	(obj:1)
t_y25_295                                           1 	(obj:1)
t_y25_399                                           1 	(obj:1)
t_y25_470                                           1 	(obj:1)
t_y25_27                                            1 	(obj:1)
t_y25_34                                            1 	(obj:1)
t_y25_26                                            1 	(obj:1)
t_y25_299                                           1 	(obj:1)
t_y25_396                                           1 	(obj:1)
t_y25_297                                           1 	(obj:1)
